c Created with the Wolfram Language : www.wolfram.com
c 
p edge 90 796
e 1 2
e 2 5
e 4 7
e 7 8
e 3 9
e 6 9
e 5 10
e 2 11
e 4 11
e 2 12
e 4 12
e 11 12
e 5 14
e 8 14
e 13 14
e 7 15
e 9 16
e 7 17
e 3 18
e 6 18
e 9 18
e 14 18
e 15 18
e 1 19
e 12 19
e 14 19
e 15 19
e 2 20
e 3 20
e 4 20
e 11 20
e 17 20
e 4 21
e 8 22
e 12 22
e 13 22
e 15 22
e 18 22
e 19 22
e 21 22
e 14 23
e 15 23
e 18 23
e 21 23
e 7 24
e 8 24
e 10 24
e 14 24
e 16 24
e 19 24
e 21 25
e 22 25
e 3 26
e 16 26
e 18 26
e 24 26
e 4 27
e 8 27
e 10 27
e 11 27
e 21 27
e 22 27
e 26 27
e 1 28
e 6 28
e 7 28
e 11 28
e 14 28
e 17 28
e 19 28
e 21 28
e 3 29
e 5 29
e 8 29
e 18 29
e 19 29
e 2 30
e 14 30
e 20 30
e 26 30
e 28 30
e 29 30
e 18 31
e 5 32
e 13 32
e 14 32
e 25 32
e 28 32
e 29 32
e 3 33
e 6 33
e 8 33
e 13 33
e 18 33
e 20 33
e 24 33
e 1 34
e 3 34
e 5 34
e 7 34
e 10 34
e 12 34
e 17 34
e 19 34
e 21 34
e 23 34
e 28 34
e 30 34
e 10 35
e 21 35
e 22 35
e 7 36
e 17 36
e 25 36
e 32 36
e 4 37
e 8 37
e 12 37
e 17 37
e 18 37
e 27 37
e 35 37
e 2 38
e 5 38
e 11 38
e 16 38
e 25 38
e 2 39
e 5 39
e 7 39
e 11 39
e 14 39
e 17 39
e 18 39
e 24 39
e 26 39
e 35 39
e 3 40
e 6 40
e 7 40
e 9 40
e 14 40
e 16 40
e 19 40
e 25 40
e 35 40
e 4 41
e 7 41
e 11 41
e 31 41
e 34 41
e 37 41
e 6 42
e 10 42
e 18 42
e 19 42
e 20 42
e 29 42
e 32 42
e 6 43
e 16 43
e 25 43
e 31 43
e 35 43
e 15 44
e 18 44
e 19 44
e 21 44
e 30 44
e 32 44
e 42 44
e 3 45
e 9 45
e 13 45
e 15 45
e 16 45
e 17 45
e 18 45
e 21 45
e 22 45
e 30 45
e 38 45
e 6 46
e 18 46
e 28 46
e 30 46
e 35 46
e 37 46
e 2 47
e 3 47
e 4 47
e 10 47
e 16 47
e 20 47
e 25 47
e 27 47
e 29 47
e 31 47
e 36 47
e 42 47
e 44 47
e 45 47
e 3 48
e 7 48
e 10 48
e 14 48
e 34 48
e 36 48
e 44 48
e 46 48
e 2 49
e 4 49
e 6 49
e 8 49
e 24 49
e 30 49
e 45 49
e 2 50
e 7 50
e 8 50
e 10 50
e 14 50
e 16 50
e 24 50
e 25 50
e 42 50
e 43 50
e 46 50
e 4 51
e 9 51
e 11 51
e 17 51
e 30 51
e 37 51
e 38 51
e 40 51
e 41 51
e 44 51
e 47 51
e 49 51
e 6 52
e 10 52
e 15 52
e 16 52
e 33 52
e 43 52
e 44 52
e 2 53
e 3 53
e 4 53
e 18 53
e 23 53
e 33 53
e 47 53
e 4 54
e 12 54
e 16 54
e 29 54
e 38 54
e 40 54
e 41 54
e 48 54
e 49 54
e 51 54
e 5 55
e 8 55
e 17 55
e 19 55
e 23 55
e 28 55
e 31 55
e 35 55
e 39 55
e 43 55
e 46 55
e 47 55
e 50 55
e 4 56
e 6 56
e 11 56
e 12 56
e 21 56
e 30 56
e 36 56
e 41 56
e 50 56
e 54 56
e 4 57
e 5 57
e 13 57
e 14 57
e 16 57
e 21 57
e 29 57
e 33 57
e 40 57
e 42 57
e 43 57
e 44 57
e 46 57
e 48 57
e 51 57
e 53 57
e 1 58
e 3 58
e 11 58
e 21 58
e 22 58
e 26 58
e 27 58
e 29 58
e 40 58
e 53 58
e 54 58
e 8 59
e 13 59
e 15 59
e 24 59
e 32 59
e 34 59
e 2 60
e 6 60
e 8 60
e 11 60
e 13 60
e 16 60
e 17 60
e 18 60
e 24 60
e 27 60
e 28 60
e 32 60
e 34 60
e 35 60
e 36 60
e 41 60
e 56 60
e 57 60
e 5 61
e 10 61
e 12 61
e 13 61
e 16 61
e 17 61
e 28 61
e 34 61
e 37 61
e 40 61
e 46 61
e 8 62
e 9 62
e 10 62
e 11 62
e 13 62
e 15 62
e 21 62
e 23 62
e 26 62
e 31 62
e 39 62
e 52 62
e 53 62
e 54 62
e 1 63
e 2 63
e 3 63
e 7 63
e 10 63
e 17 63
e 19 63
e 21 63
e 24 63
e 35 63
e 40 63
e 55 63
e 2 64
e 5 64
e 13 64
e 25 64
e 31 64
e 36 64
e 42 64
e 47 64
e 60 64
e 7 65
e 17 65
e 34 65
e 35 65
e 41 65
e 42 65
e 48 65
e 54 65
e 2 66
e 7 66
e 10 66
e 18 66
e 19 66
e 22 66
e 27 66
e 28 66
e 29 66
e 35 66
e 48 66
e 49 66
e 63 66
e 65 66
e 22 67
e 28 67
e 31 67
e 34 67
e 35 67
e 37 67
e 43 67
e 53 67
e 57 67
e 58 67
e 1 68
e 3 68
e 8 68
e 9 68
e 15 68
e 17 68
e 19 68
e 20 68
e 21 68
e 23 68
e 24 68
e 27 68
e 33 68
e 34 68
e 35 68
e 37 68
e 39 68
e 40 68
e 43 68
e 44 68
e 48 68
e 51 68
e 54 68
e 59 68
e 65 68
e 66 68
e 67 68
e 1 69
e 10 69
e 19 69
e 21 69
e 24 69
e 27 69
e 28 69
e 33 69
e 39 69
e 50 69
e 51 69
e 54 69
e 56 69
e 60 69
e 2 70
e 5 70
e 9 70
e 10 70
e 12 70
e 22 70
e 25 70
e 30 70
e 38 70
e 44 70
e 51 70
e 56 70
e 58 70
e 2 71
e 6 71
e 14 71
e 21 71
e 28 71
e 29 71
e 30 71
e 35 71
e 46 71
e 50 71
e 51 71
e 52 71
e 56 71
e 1 72
e 15 72
e 20 72
e 22 72
e 33 72
e 34 72
e 42 72
e 44 72
e 45 72
e 56 72
e 60 72
e 62 72
e 66 72
e 67 72
e 69 72
e 71 72
e 17 73
e 21 73
e 25 73
e 36 73
e 43 73
e 45 73
e 47 73
e 48 73
e 52 73
e 57 73
e 63 73
e 72 73
e 3 74
e 7 74
e 9 74
e 23 74
e 27 74
e 29 74
e 33 74
e 38 74
e 42 74
e 43 74
e 45 74
e 47 74
e 49 74
e 58 74
e 67 74
e 71 74
e 3 75
e 6 75
e 13 75
e 21 75
e 23 75
e 24 75
e 38 75
e 44 75
e 46 75
e 49 75
e 55 75
e 56 75
e 62 75
e 65 75
e 66 75
e 69 75
e 70 75
e 4 76
e 8 76
e 14 76
e 23 76
e 25 76
e 30 76
e 41 76
e 47 76
e 65 76
e 69 76
e 2 77
e 4 77
e 5 77
e 7 77
e 8 77
e 11 77
e 12 77
e 22 77
e 25 77
e 26 77
e 29 77
e 32 77
e 33 77
e 34 77
e 38 77
e 42 77
e 56 77
e 57 77
e 59 77
e 61 77
e 65 77
e 76 77
e 7 78
e 10 78
e 11 78
e 12 78
e 20 78
e 21 78
e 28 78
e 34 78
e 49 78
e 58 78
e 59 78
e 72 78
e 77 78
e 2 79
e 9 79
e 10 79
e 17 79
e 18 79
e 20 79
e 27 79
e 29 79
e 34 79
e 41 79
e 43 79
e 58 79
e 70 79
e 77 79
e 2 80
e 3 80
e 4 80
e 9 80
e 10 80
e 20 80
e 30 80
e 44 80
e 47 80
e 48 80
e 56 80
e 58 80
e 61 80
e 64 80
e 76 80
e 10 81
e 11 81
e 15 81
e 17 81
e 36 81
e 37 81
e 43 81
e 46 81
e 48 81
e 53 81
e 65 81
e 69 81
e 76 81
e 1 82
e 3 82
e 5 82
e 7 82
e 10 82
e 13 82
e 14 82
e 16 82
e 20 82
e 22 82
e 30 82
e 35 82
e 54 82
e 60 82
e 61 82
e 62 82
e 68 82
e 71 82
e 72 82
e 80 82
e 11 83
e 25 83
e 26 83
e 27 83
e 30 83
e 36 83
e 38 83
e 42 83
e 47 83
e 48 83
e 52 83
e 54 83
e 60 83
e 75 83
e 79 83
e 81 83
e 1 84
e 6 84
e 7 84
e 8 84
e 15 84
e 22 84
e 23 84
e 24 84
e 28 84
e 36 84
e 37 84
e 39 84
e 48 84
e 57 84
e 60 84
e 63 84
e 69 84
e 72 84
e 73 84
e 77 84
e 79 84
e 11 85
e 20 85
e 24 85
e 27 85
e 28 85
e 32 85
e 33 85
e 39 85
e 41 85
e 45 85
e 46 85
e 65 85
e 67 85
e 69 85
e 82 85
e 2 86
e 6 86
e 11 86
e 15 86
e 16 86
e 18 86
e 19 86
e 24 86
e 26 86
e 30 86
e 31 86
e 33 86
e 34 86
e 40 86
e 44 86
e 51 86
e 55 86
e 60 86
e 73 86
e 75 86
e 76 86
e 4 87
e 6 87
e 9 87
e 11 87
e 12 87
e 14 87
e 24 87
e 35 87
e 36 87
e 38 87
e 41 87
e 44 87
e 56 87
e 59 87
e 61 87
e 66 87
e 67 87
e 69 87
e 83 87
e 5 88
e 11 88
e 13 88
e 14 88
e 15 88
e 22 88
e 25 88
e 33 88
e 40 88
e 42 88
e 44 88
e 50 88
e 51 88
e 60 88
e 74 88
e 76 88
e 82 88
e 3 89
e 5 89
e 6 89
e 9 89
e 27 89
e 28 89
e 33 89
e 36 89
e 52 89
e 58 89
e 62 89
e 64 89
e 71 89
e 79 89
e 80 89
e 4 90
e 6 90
e 7 90
e 9 90
e 16 90
e 24 90
e 26 90
e 35 90
e 42 90
e 53 90
e 61 90
e 64 90
e 65 90
e 67 90
e 69 90
e 72 90
e 74 90
e 80 90
e 81 90
e 83 90
e 89 90
